
Gurobi 12.0.2 (win64) logging started Fri Jun  6 14:25:18 2025

Set parameter LogFile to value "C:\Ioana\_uni\honours\slp\algorithm\Main_files\results\others\prox_tubules_new\Task_001_Sample003_irr_gurobi.log"
Gurobi Optimizer version 12.0.2 build v12.0.2rc0 (win64 - Windows 11.0 (26100.2))

CPU model: Intel(R) Core(TM) Ultra 5 125H, instruction set [SSE2|AVX|AVX2]
Thread count: 14 physical cores, 18 logical processors, using up to 18 threads

Non-default parameters:
TimeLimit  2200

Optimize a model with 47658 rows, 34797 columns and 147844 nonzeros
Model fingerprint: 0xd74cd141
Variable types: 17403 continuous, 17394 integer (17394 binary)
Coefficient statistics:
  Matrix range     [1e-04, 8e+04]
  Objective range  [2e-04, 9e-01]
  Bounds range     [1e+00, 1e+03]
  RHS range        [1e+00, 1e+00]
Presolve removed 31205 rows and 21838 columns
Presolve time: 0.33s
Presolved: 16453 rows, 12959 columns, 54685 nonzeros
Variable types: 6413 continuous, 6546 integer (6546 binary)

Root relaxation: objective 1.382994e-04, 751 iterations, 0.04 seconds (0.07 work units)

    Nodes    |    Current Node    |     Objective Bounds      |     Work
 Expl Unexpl |  Obj  Depth IntInf | Incumbent    BestBd   Gap | It/Node Time

     0     0    0.00014    0   10          -    0.00014      -     -    0s
H    0     0                       0.1130284    0.00014   100%     -    0s
     0     0    0.02450    0   13    0.11303    0.02450  78.3%     -    0s
     0     0     cutoff    0         0.11303    0.11303  0.00%     -    0s

Explored 1 nodes (1025 simplex iterations) in 0.64 seconds (0.67 work units)
Thread count was 18 (of 18 available processors)

Solution count 1: 0.113028 

Optimal solution found (tolerance 1.00e-04)
Best objective 1.130284141149e-01, best bound 1.130284141149e-01, gap 0.0000%
